120
[25,26,27,28,29,30,31,32,33,34,35,36,38,40,41,42,43,45,47,48,49,50,51,52,53,54,55,57,58,59,60,61,63,64,65,66,67,68,70,71,74,75,76,77,84]
[2,2,3,4,4,1,1,5,2,2,1,4,2,6,3,1,2,1,1,3,2,5,4,1,3,1,1,1,1,1,4,1,1,1,1,2,4,2,7,1,1,2,1,1,1]
